c 
c G(k,n,p) graph
c graph gen seed     : 21607
c number of vertices : 30
c max number of edges: 500
c number of classes  : 2
c edge density       : 0.800000
c edge probability   : 1.600000
c data structure     : dense
c
c           Graph Stats
c number of vertices  : 30
c nonisolated vertices: 30
c number of edges     : 216
c edge density        : 0.496552
c max degree          : 18
c avg degree          : 14.40
c min degree          : 12
p col 30 216
e 1 6
e 1 9
e 1 11
e 1 12
e 1 13
e 1 14
e 1 16
e 1 22
e 1 23
e 1 27
e 1 29
e 2 3
e 2 4
e 2 5
e 2 7
e 2 8
e 2 10
e 2 15
e 2 17
e 2 18
e 2 19
e 2 20
e 2 21
e 2 24
e 2 25
e 2 26
e 2 28
e 2 30
e 3 4
e 3 5
e 3 7
e 3 8
e 3 10
e 3 15
e 3 17
e 3 18
e 3 19
e 3 20
e 3 21
e 3 24
e 3 25
e 3 26
e 3 28
e 3 30
e 4 5
e 4 7
e 4 8
e 4 10
e 4 15
e 4 17
e 4 18
e 4 19
e 4 20
e 4 21
e 4 24
e 4 25
e 4 26
e 4 28
e 4 30
e 5 7
e 5 8
e 5 10
e 5 15
e 5 17
e 5 18
e 5 19
e 5 20
e 5 21
e 5 24
e 5 25
e 5 26
e 5 28
e 5 30
e 6 9
e 6 11
e 6 12
e 6 13
e 6 14
e 6 16
e 6 22
e 6 23
e 6 27
e 6 29
e 7 8
e 7 10
e 7 15
e 7 17
e 7 18
e 7 19
e 7 20
e 7 21
e 7 24
e 7 25
e 7 26
e 7 28
e 7 30
e 8 10
e 8 15
e 8 17
e 8 18
e 8 19
e 8 20
e 8 21
e 8 24
e 8 25
e 8 26
e 8 28
e 8 30
e 9 11
e 9 12
e 9 13
e 9 14
e 9 16
e 9 22
e 9 23
e 9 27
e 9 29
e 10 15
e 10 17
e 10 18
e 10 19
e 10 20
e 10 21
e 10 24
e 10 25
e 10 26
e 10 28
e 10 30
e 11 12
e 11 13
e 11 14
e 11 16
e 11 22
e 11 23
e 11 27
e 11 29
e 12 13
e 12 14
e 12 16
e 12 22
e 12 23
e 12 27
e 12 29
e 13 14
e 13 16
e 13 22
e 13 23
e 13 27
e 13 29
e 14 16
e 14 22
e 14 23
e 14 27
e 14 29
e 15 17
e 15 18
e 15 19
e 15 20
e 15 21
e 15 24
e 15 25
e 15 26
e 15 28
e 15 30
e 16 22
e 16 23
e 16 27
e 16 29
e 17 18
e 17 19
e 17 20
e 17 21
e 17 24
e 17 25
e 17 26
e 17 28
e 17 30
e 18 19
e 18 20
e 18 21
e 18 24
e 18 25
e 18 26
e 18 28
e 18 30
e 19 20
e 19 21
e 19 24
e 19 25
e 19 26
e 19 28
e 19 30
e 20 21
e 20 24
e 20 25
e 20 26
e 20 28
e 20 30
e 21 24
e 21 25
e 21 26
e 21 28
e 21 30
e 22 23
e 22 27
e 22 29
e 23 27
e 23 29
e 24 25
e 24 26
e 24 28
e 24 30
e 25 26
e 25 28
e 25 30
e 26 28
e 26 30
e 27 29
e 28 30
